100
1000
207
202
199
199
198
197
194
192
191
188
186
185
185
184
184
182
181
181
180
178
176
174
173
173
171
168
168
168
167
166
164
164
163
163
162
159
158
157
155
154
154
153
153
153
151
150
150
148
148
143
143
142
142
141
138
138
137
137
134
133
131
131
126
125
125
123
121
120
119
118
118
113
111
110
109
108
107
107
106
103
99
98
98
95
95
92
91
91
89
88
88
88
87
84
81
77
77
74
74
72
